c turning on binary mode checking
c parsing input formula with 202048 variables and 780980 clauses
c finished parsing, read 2337341 bytes from proof file
c detected empty clause; start verification via backward checking
c 2744 of 780980 clauses in core                            
c 743 of 94404 lemmas in core using 24810 resolution steps
c 0 RAT lemmas in core; 49 redundant literals in core lemmas
s VERIFIED
c verification time: 0.999 seconds
